letting maxWeight=69
letting values=[29, 34, 26, 12, 5, 14, 2, 61, 46, 23, 53, 1, 14, 59, 58, 51, 45, 18, 13, 57, 11, 25, 8, 59, 48, 48, 19, 52, 44, 15, 68, 43, 59, 40, 29, 67, 13, 26, 41, 65, 66, 24, 57, 15, 37, 11, 9, 43, 23, 39, 10, 57, 53, 61, 50, 24, 48, 38, 26, 26, 60, 49, 58, 52, 64, 34, 6, 54, 6, 24, 32, 13]
letting weights=[25, 26, 7, 22, 18, 9, 14, 15, 7, 16, 1, 25, 14, 2, 3, 7, 18, 3, 8, 15, 16, 12, 13, 24, 20, 27, 3, 13, 10, 27, 6, 15, 9, 23, 9, 11, 16, 2, 16, 22, 7, 25, 27, 16, 24, 3, 20, 3, 24, 23, 20, 3, 3, 1, 10, 24, 10, 25, 12, 10, 15, 9, 18, 19, 27, 26, 11, 25, 15, 25, 13, 14]
